db/data/21772771230546269468167107471225530012.z3.out
-------------------
2500.073565369
